c Reduced graph for 3-Insertions_4 generated by Cyril Grelier
p edge 281 1046
e 1 6
e 1 227
e 1 228
e 1 229
e 1 230
e 1 231
e 1 232
e 1 233
e 1 234
e 1 235
e 1 236
e 1 237
e 1 238
e 1 239
e 1 240
e 1 241
e 1 242
e 1 243
e 1 244
e 1 245
e 1 246
e 1 247
e 1 248
e 1 249
e 1 250
e 1 251
e 1 252
e 1 253
e 1 254
e 1 255
e 1 256
e 1 257
e 1 258
e 1 259
e 1 260
e 1 261
e 1 262
e 1 263
e 1 264
e 1 265
e 1 266
e 1 267
e 1 268
e 1 269
e 1 270
e 1 271
e 1 272
e 1 273
e 1 274
e 1 275
e 1 276
e 1 277
e 1 278
e 1 279
e 1 280
e 1 281
e 2 183
e 2 184
e 2 185
e 2 186
e 2 187
e 2 188
e 2 189
e 2 190
e 2 191
e 2 192
e 2 193
e 2 194
e 2 195
e 2 196
e 2 197
e 2 198
e 2 199
e 2 200
e 2 201
e 2 202
e 2 203
e 2 204
e 3 183
e 3 184
e 3 185
e 3 186
e 3 187
e 3 188
e 3 189
e 3 190
e 3 191
e 3 192
e 3 193
e 3 205
e 3 206
e 3 207
e 3 208
e 3 209
e 3 210
e 3 211
e 3 212
e 3 213
e 3 214
e 3 215
e 4 194
e 4 195
e 4 196
e 4 197
e 4 198
e 4 199
e 4 200
e 4 201
e 4 202
e 4 203
e 4 204
e 4 216
e 4 217
e 4 218
e 4 219
e 4 220
e 4 221
e 4 222
e 4 223
e 4 224
e 4 225
e 4 226
e 5 205
e 5 206
e 5 207
e 5 208
e 5 209
e 5 210
e 5 211
e 5 212
e 5 213
e 5 214
e 5 215
e 5 271
e 5 272
e 5 273
e 5 274
e 5 275
e 5 276
e 5 277
e 5 278
e 5 279
e 5 280
e 5 281
e 6 216
e 6 217
e 6 218
e 6 219
e 6 220
e 6 221
e 6 222
e 6 223
e 6 224
e 6 225
e 6 226
e 7 8
e 7 10
e 7 19
e 7 21
e 7 52
e 7 54
e 7 63
e 7 65
e 8 9
e 8 18
e 8 20
e 8 51
e 8 53
e 8 62
e 8 64
e 9 12
e 9 19
e 9 23
e 9 52
e 9 56
e 9 63
e 9 67
e 10 11
e 10 18
e 10 22
e 10 51
e 10 55
e 10 62
e 10 66
e 11 14
e 11 21
e 11 25
e 11 54
e 11 58
e 11 65
e 11 69
e 12 13
e 12 20
e 12 24
e 12 53
e 12 57
e 12 64
e 12 68
e 13 16
e 13 23
e 13 27
e 13 56
e 13 60
e 13 67
e 13 71
e 14 15
e 14 22
e 14 26
e 14 55
e 14 59
e 14 66
e 14 70
e 15 17
e 15 25
e 15 28
e 15 58
e 15 61
e 15 69
e 15 72
e 16 17
e 16 24
e 16 28
e 16 57
e 16 61
e 16 68
e 16 72
e 17 26
e 17 27
e 17 59
e 17 60
e 17 70
e 17 71
e 18 30
e 18 32
e 18 52
e 18 54
e 18 74
e 18 76
e 19 29
e 19 31
e 19 51
e 19 53
e 19 73
e 19 75
e 20 30
e 20 34
e 20 52
e 20 56
e 20 74
e 20 78
e 21 29
e 21 33
e 21 51
e 21 55
e 21 73
e 21 77
e 22 32
e 22 36
e 22 54
e 22 58
e 22 76
e 22 80
e 23 31
e 23 35
e 23 53
e 23 57
e 23 75
e 23 79
e 24 34
e 24 38
e 24 56
e 24 60
e 24 78
e 24 82
e 25 33
e 25 37
e 25 55
e 25 59
e 25 77
e 25 81
e 26 36
e 26 39
e 26 58
e 26 61
e 26 80
e 26 83
e 27 35
e 27 39
e 27 57
e 27 61
e 27 79
e 27 83
e 28 37
e 28 38
e 28 59
e 28 60
e 28 81
e 28 82
e 29 41
e 29 43
e 29 63
e 29 65
e 29 85
e 29 87
e 30 40
e 30 42
e 30 62
e 30 64
e 30 84
e 30 86
e 31 41
e 31 45
e 31 63
e 31 67
e 31 85
e 31 89
e 32 40
e 32 44
e 32 62
e 32 66
e 32 84
e 32 88
e 33 43
e 33 47
e 33 65
e 33 69
e 33 87
e 33 91
e 34 42
e 34 46
e 34 64
e 34 68
e 34 86
e 34 90
e 35 45
e 35 49
e 35 67
e 35 71
e 35 89
e 35 93
e 36 44
e 36 48
e 36 66
e 36 70
e 36 88
e 36 92
e 37 47
e 37 50
e 37 69
e 37 72
e 37 91
e 37 94
e 38 46
e 38 50
e 38 68
e 38 72
e 38 90
e 38 94
e 39 48
e 39 49
e 39 70
e 39 71
e 39 92
e 39 93
e 40 74
e 40 76
e 40 184
e 40 186
e 40 195
e 40 197
e 41 73
e 41 75
e 41 183
e 41 185
e 41 194
e 41 196
e 42 74
e 42 78
e 42 184
e 42 188
e 42 195
e 42 199
e 43 73
e 43 77
e 43 183
e 43 187
e 43 194
e 43 198
e 44 76
e 44 80
e 44 186
e 44 190
e 44 197
e 44 201
e 45 75
e 45 79
e 45 185
e 45 189
e 45 196
e 45 200
e 46 78
e 46 82
e 46 188
e 46 192
e 46 199
e 46 203
e 47 77
e 47 81
e 47 187
e 47 191
e 47 198
e 47 202
e 48 80
e 48 83
e 48 190
e 48 193
e 48 201
e 48 204
e 49 79
e 49 83
e 49 189
e 49 193
e 49 200
e 49 204
e 50 81
e 50 82
e 50 191
e 50 192
e 50 202
e 50 203
e 51 96
e 51 98
e 51 107
e 51 109
e 52 95
e 52 97
e 52 106
e 52 108
e 53 96
e 53 100
e 53 107
e 53 111
e 54 95
e 54 99
e 54 106
e 54 110
e 55 98
e 55 102
e 55 109
e 55 113
e 56 97
e 56 101
e 56 108
e 56 112
e 57 100
e 57 104
e 57 111
e 57 115
e 58 99
e 58 103
e 58 110
e 58 114
e 59 102
e 59 105
e 59 113
e 59 116
e 60 101
e 60 105
e 60 112
e 60 116
e 61 103
e 61 104
e 61 114
e 61 115
e 62 96
e 62 98
e 62 118
e 62 120
e 63 95
e 63 97
e 63 117
e 63 119
e 64 96
e 64 100
e 64 118
e 64 122
e 65 95
e 65 99
e 65 117
e 65 121
e 66 98
e 66 102
e 66 120
e 66 124
e 67 97
e 67 101
e 67 119
e 67 123
e 68 100
e 68 104
e 68 122
e 68 126
e 69 99
e 69 103
e 69 121
e 69 125
e 70 102
e 70 105
e 70 124
e 70 127
e 71 101
e 71 105
e 71 123
e 71 127
e 72 103
e 72 104
e 72 125
e 72 126
e 73 107
e 73 109
e 73 129
e 73 131
e 74 106
e 74 108
e 74 128
e 74 130
e 75 107
e 75 111
e 75 129
e 75 133
e 76 106
e 76 110
e 76 128
e 76 132
e 77 109
e 77 113
e 77 131
e 77 135
e 78 108
e 78 112
e 78 130
e 78 134
e 79 111
e 79 115
e 79 133
e 79 137
e 80 110
e 80 114
e 80 132
e 80 136
e 81 113
e 81 116
e 81 135
e 81 138
e 82 112
e 82 116
e 82 134
e 82 138
e 83 114
e 83 115
e 83 136
e 83 137
e 84 118
e 84 120
e 84 184
e 84 186
e 84 206
e 84 208
e 85 117
e 85 119
e 85 183
e 85 185
e 85 205
e 85 207
e 86 118
e 86 122
e 86 184
e 86 188
e 86 206
e 86 210
e 87 117
e 87 121
e 87 183
e 87 187
e 87 205
e 87 209
e 88 120
e 88 124
e 88 186
e 88 190
e 88 208
e 88 212
e 89 119
e 89 123
e 89 185
e 89 189
e 89 207
e 89 211
e 90 122
e 90 126
e 90 188
e 90 192
e 90 210
e 90 214
e 91 121
e 91 125
e 91 187
e 91 191
e 91 209
e 91 213
e 92 124
e 92 127
e 92 190
e 92 193
e 92 212
e 92 215
e 93 123
e 93 127
e 93 189
e 93 193
e 93 211
e 93 215
e 94 125
e 94 126
e 94 191
e 94 192
e 94 213
e 94 214
e 95 140
e 95 142
e 95 151
e 95 153
e 96 139
e 96 141
e 96 150
e 96 152
e 97 140
e 97 144
e 97 151
e 97 155
e 98 139
e 98 143
e 98 150
e 98 154
e 99 142
e 99 146
e 99 153
e 99 157
e 100 141
e 100 145
e 100 152
e 100 156
e 101 144
e 101 148
e 101 155
e 101 159
e 102 143
e 102 147
e 102 154
e 102 158
e 103 146
e 103 149
e 103 157
e 103 160
e 104 145
e 104 149
e 104 156
e 104 160
e 105 147
e 105 148
e 105 158
e 105 159
e 106 140
e 106 142
e 106 162
e 106 164
e 107 139
e 107 141
e 107 161
e 107 163
e 108 140
e 108 144
e 108 162
e 108 166
e 109 139
e 109 143
e 109 161
e 109 165
e 110 142
e 110 146
e 110 164
e 110 168
e 111 141
e 111 145
e 111 163
e 111 167
e 112 144
e 112 148
e 112 166
e 112 170
e 113 143
e 113 147
e 113 165
e 113 169
e 114 146
e 114 149
e 114 168
e 114 171
e 115 145
e 115 149
e 115 167
e 115 171
e 116 147
e 116 148
e 116 169
e 116 170
e 117 151
e 117 153
e 117 173
e 117 175
e 118 150
e 118 152
e 118 172
e 118 174
e 119 151
e 119 155
e 119 173
e 119 177
e 120 150
e 120 154
e 120 172
e 120 176
e 121 153
e 121 157
e 121 175
e 121 179
e 122 152
e 122 156
e 122 174
e 122 178
e 123 155
e 123 159
e 123 177
e 123 181
e 124 154
e 124 158
e 124 176
e 124 180
e 125 157
e 125 160
e 125 179
e 125 182
e 126 156
e 126 160
e 126 178
e 126 182
e 127 158
e 127 159
e 127 180
e 127 181
e 128 162
e 128 164
e 128 195
e 128 197
e 128 217
e 128 219
e 129 161
e 129 163
e 129 194
e 129 196
e 129 216
e 129 218
e 130 162
e 130 166
e 130 195
e 130 199
e 130 217
e 130 221
e 131 161
e 131 165
e 131 194
e 131 198
e 131 216
e 131 220
e 132 164
e 132 168
e 132 197
e 132 201
e 132 219
e 132 223
e 133 163
e 133 167
e 133 196
e 133 200
e 133 218
e 133 222
e 134 166
e 134 170
e 134 199
e 134 203
e 134 221
e 134 225
e 135 165
e 135 169
e 135 198
e 135 202
e 135 220
e 135 224
e 136 168
e 136 171
e 136 201
e 136 204
e 136 223
e 136 226
e 137 167
e 137 171
e 137 200
e 137 204
e 137 222
e 137 226
e 138 169
e 138 170
e 138 202
e 138 203
e 138 224
e 138 225
e 139 228
e 139 230
e 139 239
e 139 241
e 140 227
e 140 229
e 140 238
e 140 240
e 141 228
e 141 232
e 141 239
e 141 243
e 142 227
e 142 231
e 142 238
e 142 242
e 143 230
e 143 234
e 143 241
e 143 245
e 144 229
e 144 233
e 144 240
e 144 244
e 145 232
e 145 236
e 145 243
e 145 247
e 146 231
e 146 235
e 146 242
e 146 246
e 147 234
e 147 237
e 147 245
e 147 248
e 148 233
e 148 237
e 148 244
e 148 248
e 149 235
e 149 236
e 149 246
e 149 247
e 150 228
e 150 230
e 150 250
e 150 252
e 151 227
e 151 229
e 151 249
e 151 251
e 152 228
e 152 232
e 152 250
e 152 254
e 153 227
e 153 231
e 153 249
e 153 253
e 154 230
e 154 234
e 154 252
e 154 256
e 155 229
e 155 233
e 155 251
e 155 255
e 156 232
e 156 236
e 156 254
e 156 258
e 157 231
e 157 235
e 157 253
e 157 257
e 158 234
e 158 237
e 158 256
e 158 259
e 159 233
e 159 237
e 159 255
e 159 259
e 160 235
e 160 236
e 160 257
e 160 258
e 161 239
e 161 241
e 161 261
e 161 263
e 162 238
e 162 240
e 162 260
e 162 262
e 163 239
e 163 243
e 163 261
e 163 265
e 164 238
e 164 242
e 164 260
e 164 264
e 165 241
e 165 245
e 165 263
e 165 267
e 166 240
e 166 244
e 166 262
e 166 266
e 167 243
e 167 247
e 167 265
e 167 269
e 168 242
e 168 246
e 168 264
e 168 268
e 169 245
e 169 248
e 169 267
e 169 270
e 170 244
e 170 248
e 170 266
e 170 270
e 171 246
e 171 247
e 171 268
e 171 269
e 172 206
e 172 208
e 172 250
e 172 252
e 172 272
e 172 274
e 173 205
e 173 207
e 173 249
e 173 251
e 173 271
e 173 273
e 174 206
e 174 210
e 174 250
e 174 254
e 174 272
e 174 276
e 175 205
e 175 209
e 175 249
e 175 253
e 175 271
e 175 275
e 176 208
e 176 212
e 176 252
e 176 256
e 176 274
e 176 278
e 177 207
e 177 211
e 177 251
e 177 255
e 177 273
e 177 277
e 178 210
e 178 214
e 178 254
e 178 258
e 178 276
e 178 280
e 179 209
e 179 213
e 179 253
e 179 257
e 179 275
e 179 279
e 180 212
e 180 215
e 180 256
e 180 259
e 180 278
e 180 281
e 181 211
e 181 215
e 181 255
e 181 259
e 181 277
e 181 281
e 182 213
e 182 214
e 182 257
e 182 258
e 182 279
e 182 280
e 216 261
e 216 263
e 217 260
e 217 262
e 218 261
e 218 265
e 219 260
e 219 264
e 220 263
e 220 267
e 221 262
e 221 266
e 222 265
e 222 269
e 223 264
e 223 268
e 224 267
e 224 270
e 225 266
e 225 270
e 226 268
e 226 269
